(declare-fun v0x52cb080_0 () Real)
(declare-fun R0x553e3e0 () Real)
(declare-fun v0x52d12a0_0 () Real)
(declare-fun v0x52cff80_0 () Real)
(declare-fun R0x552d5f0 () Real)
(declare-fun R0x553a300 () Real)
(declare-fun v0x51b1d40_0 () Bool)
(declare-fun R0x553c3d0 () Real)
(declare-fun v0x52c9480_0 () Real)
(declare-fun R0x5549370 () Real)
(declare-fun v0x52c7790_0 () Real)
(declare-fun v0x52d6ba0_0 () Real)
(declare-fun R0x552c2f0 () Real)
(declare-fun R0x5532fe0 () Real)
(declare-fun v0x52c7490_0 () Real)
(declare-fun R0x55479f0 () Real)
(declare-fun v0x52ce480_0 () Real)
(declare-fun v0x52d50a0_0 () Real)
(declare-fun R0x552bb80 () Real)
(declare-fun R0x55318d0 () Real)
(declare-fun v0x52c5990_0 () Real)
(declare-fun R0x55438e0 () Real)
(declare-fun v0x52cce80_0 () Real)
(declare-fun v0x52d2aa0_0 () Real)
(declare-fun v0x52d34a0_0 () Real)
(declare-fun v0x52db290_0 () Real)
(declare-fun R0x5531430 () Real)
(declare-fun v0x52c3ec0_0 () Real)
(declare-fun R0x55415c0 () Real)
(declare-fun v0x52cb280_0 () Real)
(declare-fun R0x553dec0 () Real)
(declare-fun v0x52d14a0_0 () Real)
(declare-fun v0x52d0180_0 () Real)
(declare-fun R0x552d950 () Real)
(declare-fun R0x553a910 () Real)
(declare-fun v0x518fdd0_0 () Bool)
(declare-fun R0x553d020 () Real)
(declare-fun v0x52c9680_0 () Real)
(declare-fun R0x5549620 () Real)
(declare-fun v0x518bfc0_0 () Real)
(declare-fun v0x52d6da0_0 () Real)
(declare-fun R0x552ca60 () Real)
(declare-fun R0x5537cc0 () Real)
(declare-fun v0x52c7690_0 () Real)
(declare-fun R0x5547c40 () Real)
(declare-fun v0x52ce580_0 () Real)
(declare-fun v0x52d52a0_0 () Real)
(declare-fun R0x552f4e0 () Real)
(declare-fun R0x552ff20 () Real)
(declare-fun v0x52c5b90_0 () Real)
(declare-fun R0x5543b30 () Real)
(declare-fun v0x52cd080_0 () Real)
(declare-fun v0x52d2ca0_0 () Real)
(declare-fun v0x52d36a0_0 () Real)
(declare-fun v0x52db490_0 () Real)
(declare-fun R0x5531200 () Real)
(declare-fun v0x52c30c0_0 () Real)
(declare-fun R0x5541870 () Real)
(declare-fun v0x52cb480_0 () Real)
(declare-fun R0x553ea30 () Real)
(declare-fun v0x52d16a0_0 () Real)
(declare-fun v0x52d0380_0 () Real)
(declare-fun R0x552a660 () Real)
(declare-fun R0x5539920 () Real)
(declare-fun E0x518ff90 () Bool)
(declare-fun R0x553dbc0 () Real)
(declare-fun v0x52c9880_0 () Real)
(declare-fun R0x5545430 () Real)
(declare-fun v0x52c7890_0 () Real)
(declare-fun v0x52d6fa0_0 () Real)
(declare-fun R0x552acb0 () Real)
(declare-fun R0x5536390 () Real)
(declare-fun v0x52c43c0_0 () Real)
(declare-fun R0x55480f0 () Real)
(declare-fun v0x52cdf80_0 () Real)
(declare-fun v0x52d54a0_0 () Real)
(declare-fun R0x552f490 () Real)
(declare-fun R0x552dfd0 () Real)
(declare-fun v0x52c5d90_0 () Real)
(declare-fun R0x5543e00 () Real)
(declare-fun v0x52cd280_0 () Real)
(declare-fun v0x52d38a0_0 () Real)
(declare-fun v0x52db790_0 () Bool)
(declare-fun R0x552db20 () Real)
(declare-fun v0x52c40c0_0 () Real)
(declare-fun R0x5541ba0 () Real)
(declare-fun v0x52cb680_0 () Real)
(declare-fun R0x553d170 () Real)
(declare-fun v0x52d18a0_0 () Real)
(declare-fun v0x52d9990_0 () Real)
(declare-fun R0x552e790 () Real)
(declare-fun R0x5539ea0 () Real)
(declare-fun v0x518fa50_0 () Bool)
(declare-fun R0x5533660 () Real)
(declare-fun v0x52c9a80_0 () Real)
(declare-fun R0x5548540 () Real)
(declare-fun v0x52c7a90_0 () Real)
(declare-fun v0x52d71a0_0 () Real)
(declare-fun R0x552eac0 () Real)
(declare-fun R0x5533da0 () Real)
(declare-fun v0x52c45c0_0 () Real)
(declare-fun R0x5546df0 () Real)
(declare-fun v0x52ce680_0 () Real)
(declare-fun v0x52d56a0_0 () Real)
(declare-fun R0x552a920 () Real)
(declare-fun R0x552e520 () Real)
(declare-fun v0x52c5f90_0 () Real)
(declare-fun R0x55440f0 () Real)
(declare-fun v0x52cd480_0 () Real)
(declare-fun v0x52d3aa0_0 () Real)
(declare-fun v0x52c24f0_0 () Real)
(declare-fun R0x5530460 () Real)
(declare-fun v0x51ba750_0 () Real)
(declare-fun R0x5534f80 () Real)
(declare-fun v0x52cb880_0 () Real)
(declare-fun R0x5544020 () Real)
(declare-fun v0x518c5d0_0 () Real)
(declare-fun v0x52d9b90_0 () Real)
(declare-fun R0x552f8f0 () Real)
(declare-fun R0x5535bd0 () Real)
(declare-fun v0x51907b0_0 () Bool)
(declare-fun R0x5533a50 () Real)
(declare-fun v0x52c9c80_0 () Real)
(declare-fun R0x5548770 () Real)
(declare-fun v0x52c7c90_0 () Real)
(declare-fun v0x52d73a0_0 () Real)
(declare-fun R0x552a130 () Real)
(declare-fun R0x5532be0 () Real)
(declare-fun v0x52c8080_0 () Real)
(declare-fun R0x5546f20 () Real)
(declare-fun v0x52ce780_0 () Real)
(declare-fun v0x52d58a0_0 () Real)
(declare-fun R0x552ef40 () Real)
(declare-fun R0x552f680 () Real)
(declare-fun v0x52c6190_0 () Real)
(declare-fun R0x5545fe0 () Real)
(declare-fun v0x52c2bc0_0 () Real)
(declare-fun v0x52d3ca0_0 () Real)
(declare-fun v0x52db890_0 () Real)
(declare-fun R0x552df00 () Real)
(declare-fun v0x52c2910_0 () Real)
(declare-fun R0x5538c00 () Real)
(declare-fun v0x52cba80_0 () Real)
(declare-fun R0x5533e80 () Real)
(declare-fun v0x52d19a0_0 () Real)
(declare-fun v0x52d9d90_0 () Real)
(declare-fun R0x5528ef0 () Real)
(declare-fun R0x5539060 () Real)
(declare-fun E0x5190990 () Bool)
(declare-fun R0x5539b00 () Real)
(declare-fun v0x52c9e80_0 () Real)
(declare-fun R0x5548aa0 () Real)
(declare-fun v0x52d05c0_0 () Real)
(declare-fun v0x52d75a0_0 () Real)
(declare-fun R0x552b3f0 () Real)
(declare-fun R0x5537500 () Real)
(declare-fun v0x52c8280_0 () Real)
(declare-fun R0x5545890 () Real)
(declare-fun v0x52ce080_0 () Real)
(declare-fun v0x52d5aa0_0 () Real)
(declare-fun R0x552ac30 () Real)
(declare-fun R0x5532920 () Real)
(declare-fun v0x518bde0_0 () Real)
(declare-fun R0x55436f0 () Real)
(declare-fun v0x52cd680_0 () Real)
(declare-fun v0x52d3ea0_0 () Real)
(declare-fun v0x52c23f0_0 () Real)
(declare-fun R0x552d020 () Real)
(declare-fun v0x52c4790_0 () Real)
(declare-fun R0x55405a0 () Real)
(declare-fun v0x52cbc80_0 () Real)
(declare-fun R0x553a840 () Real)
(declare-fun v0x52d1ba0_0 () Real)
(declare-fun v0x52d9f90_0 () Real)
(declare-fun R0x5529110 () Real)
(declare-fun R0x553a210 () Real)
(declare-fun E0x5190c10 () Bool)
(declare-fun R0x5539560 () Real)
(declare-fun v0x52ca080_0 () Real)
(declare-fun R0x5544bc0 () Real)
(declare-fun v0x52d07a0_0 () Real)
(declare-fun v0x52d77a0_0 () Real)
(declare-fun R0x552ee60 () Real)
(declare-fun R0x5533ca0 () Real)
(declare-fun R0x553bed0 () Real)
(declare-fun v0x52c8480_0 () Real)
(declare-fun R0x55474d0 () Real)
(declare-fun v0x52ce880_0 () Real)
(declare-fun v0x52d5ca0_0 () Real)
(declare-fun R0x552af10 () Real)
(declare-fun R0x55359b0 () Real)
(declare-fun v0x52c6490_0 () Real)
(declare-fun R0x55457d0 () Real)
(declare-fun v0x52cd880_0 () Real)
(declare-fun v0x52d40a0_0 () Real)
(declare-fun v0x52dba90_0 () Real)
(declare-fun R0x552b160 () Real)
(declare-fun v0x52c4990_0 () Real)
(declare-fun R0x5540830 () Real)
(declare-fun v0x52cbe80_0 () Real)
(declare-fun R0x5541780 () Real)
(declare-fun v0x52d1da0_0 () Real)
(declare-fun v0x52da190_0 () Real)
(declare-fun R0x5529330 () Real)
(declare-fun R0x553a070 () Real)
(declare-fun v0x52c36c0_0 () Real)
(declare-fun R0x553e910 () Real)
(declare-fun v0x52ca280_0 () Real)
(declare-fun R0x5544f90 () Real)
(declare-fun v0x52c0f30_0 () Real)
(declare-fun v0x52d79a0_0 () Real)
(declare-fun R0x552eca0 () Real)
(declare-fun R0x5535d10 () Real)
(declare-fun R0x5539c20 () Real)
(declare-fun v0x52c8680_0 () Real)
(declare-fun R0x5546a90 () Real)
(declare-fun v0x52ce980_0 () Real)
(declare-fun v0x52d5ea0_0 () Real)
(declare-fun R0x552a5c0 () Real)
(declare-fun R0x5535900 () Real)
(declare-fun v0x52c6690_0 () Real)
(declare-fun R0x5545b40 () Real)
(declare-fun v0x52cda80_0 () Real)
(declare-fun v0x52d43a0_0 () Real)
(declare-fun v0x52dbc90_0 () Real)
(declare-fun R0x552e480 () Real)
(declare-fun v0x52c4b90_0 () Real)
(declare-fun R0x5536f40 () Real)
(declare-fun v0x52cc080_0 () Real)
(declare-fun R0x5540ab0 () Real)
(declare-fun v0x52d1fa0_0 () Real)
(declare-fun v0x52da390_0 () Real)
(declare-fun R0x5531930 () Real)
(declare-fun R0x55306a0 () Real)
(declare-fun v0x52c37c0_0 () Real)
(declare-fun R0x553eba0 () Real)
(declare-fun v0x52ca480_0 () Real)
(declare-fun R0x55451c0 () Real)
(declare-fun v0x52d09a0_0 () Real)
(declare-fun v0x52d7ba0_0 () Real)
(declare-fun R0x552aa60 () Real)
(declare-fun R0x5531a90 () Real)
(declare-fun R0x5532ea0 () Real)
(declare-fun v0x52c8880_0 () Real)
(declare-fun R0x5548220 () Real)
(declare-fun v0x52ce180_0 () Real)
(declare-fun v0x52d60a0_0 () Real)
(declare-fun R0x552b2b0 () Real)
(declare-fun R0x5535fc0 () Real)
(declare-fun v0x52c6890_0 () Real)
(declare-fun R0x55460a0 () Real)
(declare-fun v0x52cdc80_0 () Bool)
(declare-fun v0x518cb70_0 () Real)
(declare-fun v0x52dbe90_0 () Real)
(declare-fun R0x552c7b0 () Real)
(declare-fun v0x52c4d90_0 () Real)
(declare-fun R0x5540150 () Real)
(declare-fun v0x52cc280_0 () Real)
(declare-fun R0x5540c10 () Real)
(declare-fun v0x52d21a0_0 () Real)
(declare-fun v0x52da590_0 () Real)
(declare-fun R0x552ffc0 () Real)
(declare-fun R0x553b560 () Real)
(declare-fun v0x52c39c0_0 () Real)
(declare-fun R0x553efe0 () Real)
(declare-fun v0x52ca680_0 () Real)
(declare-fun R0x5549940 () Real)
(declare-fun v0x52c25f0_0 () Real)
(declare-fun v0x52d7da0_0 () Real)
(declare-fun R0x552aec0 () Real)
(declare-fun R0x5536c30 () Real)
(declare-fun R0x5539720 () Real)
(declare-fun v0x52c8a80_0 () Real)
(declare-fun R0x5548350 () Real)
(declare-fun v0x52cea80_0 () Bool)
(declare-fun v0x52d62a0_0 () Real)
(declare-fun R0x552b540 () Real)
(declare-fun R0x55362d0 () Real)
(declare-fun v0x52c6a90_0 () Real)
(declare-fun R0x55461d0 () Real)
(declare-fun v0x52c2fc0_0 () Real)
(declare-fun v0x52d44a0_0 () Real)
(declare-fun R0x54a34e0 () Real)
(declare-fun R0x5530c00 () Real)
(declare-fun v0x52c4f90_0 () Real)
(declare-fun R0x55403c0 () Real)
(declare-fun v0x52cc480_0 () Real)
(declare-fun R0x553d850 () Real)
(declare-fun v0x52d23a0_0 () Real)
(declare-fun v0x52da790_0 () Real)
(declare-fun R0x5531e90 () Real)
(declare-fun R0x553b850 () Real)
(declare-fun v0x52c34c0_0 () Real)
(declare-fun R0x55409b0 () Real)
(declare-fun v0x52ca880_0 () Real)
(declare-fun R0x5547440 () Real)
(declare-fun v0x52d0ba0_0 () Real)
(declare-fun v0x52d7fa0_0 () Real)
(declare-fun R0x552da20 () Real)
(declare-fun R0x5536510 () Real)
(declare-fun R0x553b4f0 () Real)
(declare-fun v0x52c8c80_0 () Real)
(declare-fun R0x55444a0 () Real)
(declare-fun v0x52cf780_0 () Bool)
(declare-fun v0x52d64a0_0 () Real)
(declare-fun R0x552c980 () Real)
(declare-fun R0x55366c0 () Real)
(declare-fun v0x52c6c90_0 () Real)
(declare-fun R0x5546580 () Real)
(declare-fun v0x52cdd80_0 () Bool)
(declare-fun v0x52d46a0_0 () Real)
(declare-fun R0x5529c70 () Real)
(declare-fun R0x5530f40 () Real)
(declare-fun v0x52c5190_0 () Real)
(declare-fun R0x5542d20 () Real)
(declare-fun v0x52cc680_0 () Real)
(declare-fun R0x5538c60 () Real)
(declare-fun v0x52d25a0_0 () Real)
(declare-fun v0x52da990_0 () Real)
(declare-fun R0x5531310 () Real)
(declare-fun v0x52c3bc0_0 () Bool)
(declare-fun R0x5540d60 () Real)
(declare-fun v0x52caa80_0 () Real)
(declare-fun R0x5549750 () Real)
(declare-fun v0x52d0da0_0 () Real)
(declare-fun v0x52cf980_0 () Real)
(declare-fun R0x5528e10 () Real)
(declare-fun R0x5535040 () Real)
(declare-fun v0x518edc0_0 () Bool)
(declare-fun R0x55398a0 () Real)
(declare-fun v0x52c8e80_0 () Real)
(declare-fun R0x5544890 () Real)
(declare-fun v0x52c2ac0_0 () Real)
(declare-fun v0x52d66a0_0 () Real)
(declare-fun R0x552a890 () Real)
(declare-fun R0x5535580 () Real)
(declare-fun v0x52c6e90_0 () Real)
(declare-fun R0x5546b90 () Real)
(declare-fun v0x52cde80_0 () Bool)
(declare-fun v0x52d4aa0_0 () Real)
(declare-fun R0x552f370 () Real)
(declare-fun R0x552dd00 () Real)
(declare-fun v0x52c5390_0 () Real)
(declare-fun R0x5542fb0 () Real)
(declare-fun v0x52cc880_0 () Real)
(declare-fun R0x5537ee0 () Real)
(declare-fun v0x518a2c0_0 () Real)
(declare-fun v0x52d2ea0_0 () Real)
(declare-fun v0x52dab90_0 () Real)
(declare-fun R0x552d180 () Real)
(declare-fun v0x52c33c0_0 () Real)
(declare-fun R0x5540e90 () Real)
(declare-fun v0x52cac80_0 () Real)
(declare-fun R0x553e340 () Real)
(declare-fun v0x52d0fa0_0 () Real)
(declare-fun v0x52cfb80_0 () Real)
(declare-fun R0x552a2e0 () Real)
(declare-fun R0x5539f50 () Real)
(declare-fun v0x51b01e0_0 () Bool)
(declare-fun R0x553d0b0 () Real)
(declare-fun v0x52c9080_0 () Real)
(declare-fun R0x5549710 () Real)
(declare-fun v0x52cf880_0 () Real)
(declare-fun v0x518c990_0 () Real)
(declare-fun R0x552b650 () Real)
(declare-fun R0x5534b50 () Real)
(declare-fun v0x52c7090_0 () Real)
(declare-fun R0x5546cc0 () Real)
(declare-fun v0x52ce280_0 () Real)
(declare-fun v0x52d4ca0_0 () Real)
(declare-fun R0x552f560 () Real)
(declare-fun R0x5531dc0 () Real)
(declare-fun v0x52c5590_0 () Real)
(declare-fun R0x5543240 () Real)
(declare-fun v0x52cca80_0 () Real)
(declare-fun v0x52d26a0_0 () Real)
(declare-fun v0x52d30a0_0 () Real)
(declare-fun v0x52dad90_0 () Real)
(declare-fun R0x552e040 () Real)
(declare-fun v0x52c3cc0_0 () Bool)
(declare-fun R0x5541140 () Real)
(declare-fun v0x52cae80_0 () Real)
(declare-fun R0x5535490 () Real)
(declare-fun v0x52d11a0_0 () Real)
(declare-fun v0x52cfd80_0 () Real)
(declare-fun R0x552d7f0 () Real)
(declare-fun R0x55371a0 () Real)
(declare-fun E0x518efa0 () Bool)
(declare-fun R0x55348a0 () Real)
(declare-fun v0x52c9280_0 () Real)
(declare-fun R0x5549080 () Real)
(declare-fun v0x52c1030_0 () Real)
(declare-fun v0x52d69a0_0 () Real)
(declare-fun R0x5529530 () Real)
(declare-fun R0x5537770 () Real)
(declare-fun v0x52c7290_0 () Real)
(declare-fun R0x55478c0 () Real)
(declare-fun v0x52ce380_0 () Real)
(declare-fun v0x52d4ea0_0 () Real)
(declare-fun R0x552b880 () Real)
(declare-fun R0x552d4a0 () Real)
(declare-fun v0x52c5790_0 () Real)
(declare-fun R0x5543530 () Real)
(declare-fun v0x52ccc80_0 () Real)
(declare-fun v0x52d28a0_0 () Real)
(declare-fun v0x52d32a0_0 () Real)
(declare-fun v0x52daf90_0 () Real)
(declare-fun R0x55327e0 () Real)
(declare-fun v0x52c32c0_0 () Real)
(declare-fun R0x5541490 () Real)

(assert
(let ((a!1 (and (not v0x51b1d40_0)
                (or (>= v0x52c36c0_0 (+ 0.0 1.0)) (<= v0x52c36c0_0 (- 0.0 1.0)))))
      (a!2 (and (not v0x518fa50_0)
                (or (>= v0x52c37c0_0 (+ 0.0 1.0)) (<= v0x52c37c0_0 (- 0.0 1.0)))))
      (a!3 (and (not v0x52c3bc0_0)
                (or (>= v0x52c33c0_0 (+ 0.0 1.0)) (<= v0x52c33c0_0 (- 0.0 1.0)))))
      (a!4 (and (not v0x52c3cc0_0)
                (or (>= v0x52c32c0_0 (+ 0.0 1.0)) (<= v0x52c32c0_0 (- 0.0 1.0)))))
      (a!5 (or (and v0x52cdc80_0 (>= v0x52c2fc0_0 (+ 255.0 1.0)))
               (and (not v0x52cdc80_0) (<= v0x52c2fc0_0 255.0))))
      (a!6 (or (and v0x52cdd80_0 (>= v0x52c2fc0_0 (+ 63.0 1.0)))
               (and (not v0x52cdd80_0) (<= v0x52c2fc0_0 63.0))))
      (a!7 (or (and v0x52cde80_0 (>= v0x52c2fc0_0 (+ 31.0 1.0)))
               (and (not v0x52cde80_0) (<= v0x52c2fc0_0 31.0))))
      (a!8 (or (and v0x52cea80_0 (>= v0x52c2fc0_0 (+ 15.0 1.0)))
               (and (not v0x52cea80_0) (<= v0x52c2fc0_0 15.0))))
      (a!9 (or (and v0x52cf780_0 (>= v0x52c2ac0_0 (+ 1.0 1.0)))
               (and (not v0x52cf780_0) (<= v0x52c2ac0_0 1.0))))
      (a!10 (and v0x52db790_0
                 (or (>= v0x52c24f0_0 (+ 1.0 1.0))
                     (<= v0x52c24f0_0 (- 1.0 1.0))))))
(let ((a!11 (and (or (not v0x518edc0_0)
                     (and v0x51b01e0_0 E0x518efa0 v0x51b1d40_0))
                 (or (not v0x518edc0_0) E0x518efa0)
                 (or (not v0x518fdd0_0)
                     (and v0x518edc0_0 E0x518ff90 (not v0x518fa50_0)))
                 (or (not v0x518fdd0_0) E0x518ff90)
                 (or (not v0x51907b0_0)
                     (and v0x518fdd0_0 E0x5190990)
                     (and v0x518edc0_0 E0x5190c10 v0x518fa50_0))
                 (or (not v0x51907b0_0)
                     (and E0x5190990 (not E0x5190c10))
                     (and E0x5190c10 (not E0x5190990)))
                 v0x51907b0_0
                 (or (and v0x51b1d40_0 (= v0x52c36c0_0 0.0)) a!1)
                 (or (and v0x518fa50_0 (= v0x52c37c0_0 0.0)) a!2)
                 (= v0x52c39c0_0 (+ v0x52c34c0_0 1160.0))
                 (or (and v0x52c3bc0_0 (= v0x52c33c0_0 0.0)) a!3)
                 (or (and v0x52c3cc0_0 (= v0x52c32c0_0 0.0)) a!4)
                 (= v0x52c3ec0_0 (+ v0x52c30c0_0 4.0))
                 (= v0x52c40c0_0 (+ v0x52c30c0_0 8.0))
                 (= v0x51ba750_0 (+ v0x52c30c0_0 12.0))
                 (= v0x52c2910_0 (+ v0x52c30c0_0 16.0))
                 (= v0x52c4790_0 (+ v0x52c30c0_0 20.0))
                 (= v0x52c4990_0 (+ v0x52c30c0_0 24.0))
                 (= v0x52c4b90_0 (+ v0x52c30c0_0 48.0))
                 (= v0x52c4d90_0 (+ v0x52c30c0_0 128.0))
                 (= v0x52c4f90_0 (+ v0x52c30c0_0 132.0))
                 (= v0x52c5190_0 (+ v0x52c30c0_0 84.0))
                 (= v0x52c5390_0 (+ v0x52c34c0_0 344.0))
                 (= v0x52c5590_0 (+ v0x52c30c0_0 108.0))
                 (= v0x52c5790_0 (+ v0x52c30c0_0 120.0))
                 (= v0x52c5990_0 (+ v0x52c30c0_0 104.0))
                 (= v0x52c5b90_0 (+ v0x52c30c0_0 116.0))
                 (= v0x52c5d90_0 (+ v0x52c30c0_0 124.0))
                 (= v0x52c5f90_0 (+ v0x52c30c0_0 112.0))
                 (= v0x52c6190_0 v0x518bde0_0)
                 (= v0x52c6490_0 (+ v0x52c6190_0 8.0))
                 (= v0x52c6690_0 (+ v0x52c6190_0 12.0))
                 (= v0x52c6890_0 (+ v0x52c6190_0 16.0))
                 (= v0x52c6a90_0 (+ v0x52c6190_0 40.0))
                 (= v0x52c6c90_0 (+ v0x52c6190_0 36.0))
                 (= v0x52c6e90_0 (+ v0x52c6190_0 20.0))
                 (= v0x52c7090_0 (+ v0x52c6190_0 24.0))
                 (= v0x52c7290_0 (+ v0x52c6190_0 28.0))
                 (= v0x52c7490_0 (+ v0x52c6190_0 32.0))
                 (= v0x52c7690_0 (+ v0x52c6190_0 44.0))
                 (= v0x52c43c0_0 (+ v0x52c6190_0 48.0))
                 (= v0x52c45c0_0 (+ v0x52c6190_0 52.0))
                 (= v0x52c8080_0 (+ v0x52c30c0_0 100.0))
                 (= v0x52c8280_0 (+ v0x52c30c0_0 96.0))
                 (= v0x52c8480_0 (+ v0x52c34c0_0 256.0))
                 (= v0x52c8680_0 (+ v0x52c30c0_0 32.0))
                 (= v0x52c8880_0 (+ v0x52c30c0_0 36.0))
                 (= v0x52c8a80_0 (+ v0x52c30c0_0 44.0))
                 (= v0x52c8c80_0 (+ v0x52c30c0_0 56.0))
                 (= v0x52c8e80_0 (+ v0x52c30c0_0 60.0))
                 (= v0x52c9080_0 (+ v0x52c30c0_0 68.0))
                 (= v0x52c9280_0 (+ v0x52c30c0_0 72.0))
                 (= v0x52c9480_0 (+ v0x52c6190_0 84.0))
                 (= v0x52c9680_0 (+ v0x52c6190_0 56.0))
                 (= v0x52c9880_0 (+ v0x52c6190_0 64.0))
                 (= v0x52c9a80_0 (+ v0x52c6190_0 60.0))
                 (= v0x52c9c80_0 (+ v0x52c6190_0 68.0))
                 (= v0x52c9e80_0 (+ v0x52c6190_0 72.0))
                 (= v0x52ca080_0 (+ v0x52c6190_0 76.0))
                 (= v0x52ca280_0 (+ v0x52c6190_0 80.0))
                 (= v0x52ca480_0 (+ v0x52c6190_0 92.0))
                 (= v0x52ca680_0 (+ v0x52c6190_0 88.0))
                 (= v0x52ca880_0 (+ v0x52c34c0_0 160.0))
                 (= v0x52caa80_0 (+ v0x52c34c0_0 164.0))
                 (= v0x52cac80_0 (+ v0x52c34c0_0 168.0))
                 (= v0x52cae80_0 (+ v0x52c34c0_0 172.0))
                 (= v0x52cb080_0 (+ v0x52c34c0_0 176.0))
                 (= v0x52cb280_0 (+ v0x52c34c0_0 180.0))
                 (= v0x52cb480_0 (+ v0x52c34c0_0 184.0))
                 (= v0x52cb680_0 (+ v0x52c34c0_0 208.0))
                 (= v0x52cb880_0 (+ v0x52c34c0_0 288.0))
                 (= v0x52cba80_0 (+ v0x52c34c0_0 292.0))
                 (= v0x52cbc80_0 (+ v0x52c34c0_0 244.0))
                 (= v0x52cbe80_0 (+ v0x52c34c0_0 268.0))
                 (= v0x52cc080_0 (+ v0x52c34c0_0 280.0))
                 (= v0x52cc280_0 (+ v0x52c34c0_0 264.0))
                 (= v0x52cc480_0 (+ v0x52c34c0_0 276.0))
                 (= v0x52cc680_0 (+ v0x52c34c0_0 284.0))
                 (= v0x52cc880_0 (+ v0x52c34c0_0 272.0))
                 (= v0x52cca80_0 (+ v0x52c34c0_0 260.0))
                 (= v0x52ccc80_0 (+ v0x52c34c0_0 1080.0))
                 (= v0x52cce80_0 (+ v0x52c34c0_0 8.0))
                 (= v0x52cd080_0 (+ v0x52c34c0_0 368.0))
                 (= v0x52cd280_0 (+ v0x52c34c0_0 356.0))
                 (= v0x52cd480_0 (+ v0x52c2bc0_0 1160.0))
                 (= v0x52cd680_0 (+ v0x52c2bc0_0 1136.0))
                 (= v0x52cd880_0 (+ v0x52c2bc0_0 184.0))
                 (= v0x52cda80_0 (+ v0x52c2bc0_0 208.0))
                 a!5
                 a!6
                 a!7
                 (= v0x52ce280_0 v0x52c2fc0_0)
                 (= v0x52ce380_0 (* v0x52ce280_0 3.0))
                 (= v0x52ce480_0 (+ v0x52ce380_0 64.0))
                 (= v0x52ce580_0 v0x52cdf80_0)
                 (= v0x52ce680_0 (+ v0x52ce380_0 65.0))
                 (= v0x52ce780_0 v0x52ce080_0)
                 (= v0x52ce880_0 (+ v0x52ce380_0 66.0))
                 (= v0x52ce980_0 v0x52ce180_0)
                 a!8
                 a!9
                 (= v0x52cf880_0 v0x52c1030_0)
                 (= v0x52c7790_0 v0x518bfc0_0)
                 (= v0x52c7890_0 (+ v0x52c7790_0 8.0))
                 (= v0x52c7a90_0 (+ v0x52c7790_0 16.0))
                 (= v0x52c7c90_0 (+ v0x52c7790_0 24.0))
                 (= v0x52d05c0_0 (+ v0x52c7790_0 32.0))
                 (= v0x52d07a0_0 (+ v0x52c0f30_0 200.0))
                 (= v0x52d09a0_0 (+ v0x52c25f0_0 944.0))
                 (= v0x52d0ba0_0 (+ v0x52c25f0_0 144.0))
                 (= v0x52d0da0_0 (+ v0x52c25f0_0 62.0))
                 (= v0x52d0fa0_0 (+ v0x52c25f0_0 916.0))
                 (= v0x52d11a0_0 (+ v0x52c25f0_0 1032.0))
                 (= v0x52d12a0_0 (+ v0x52c25f0_0 1056.0))
                 (= v0x52d14a0_0 (+ v0x52c25f0_0 16.0))
                 (= v0x52d16a0_0 (+ v0x52c25f0_0 56.0))
                 (= v0x52d18a0_0 v0x518c5d0_0)
                 (= v0x52d19a0_0 (+ v0x52d18a0_0 4.0))
                 (= v0x52d1ba0_0 (+ v0x52d18a0_0 8.0))
                 (= v0x52d1da0_0 (+ v0x52d18a0_0 12.0))
                 (= v0x52d1fa0_0 (+ v0x52d18a0_0 16.0))
                 (= v0x52d21a0_0 (+ v0x52d18a0_0 20.0))
                 (= v0x52d23a0_0 (+ v0x52d18a0_0 24.0))
                 (= v0x52d25a0_0 v0x518a2c0_0)
                 (= v0x52d26a0_0 (+ v0x52d25a0_0 4.0))
                 (= v0x52d28a0_0 (+ v0x52d25a0_0 8.0))
                 (= v0x52d2aa0_0 (+ v0x52d25a0_0 12.0))
                 (= v0x52d2ca0_0 (+ v0x52d25a0_0 16.0))
                 (= v0x52d2ea0_0 (+ v0x52d25a0_0 20.0))
                 (= v0x52d30a0_0 (+ v0x52d25a0_0 24.0))
                 (= v0x52d32a0_0 (+ v0x52d25a0_0 28.0))
                 (= v0x52d34a0_0 (+ v0x52d25a0_0 32.0))
                 (= v0x52d36a0_0 (+ v0x52d25a0_0 36.0))
                 (= v0x52d38a0_0 (+ v0x52d25a0_0 40.0))
                 (= v0x52d3aa0_0 (+ v0x52d25a0_0 44.0))
                 (= v0x52d3ca0_0 (+ v0x52d25a0_0 48.0))
                 (= v0x52d3ea0_0 (+ v0x52d25a0_0 52.0))
                 (= v0x52d40a0_0 (+ v0x52d25a0_0 56.0))
                 (= v0x52d43a0_0 v0x518cb70_0)
                 (= v0x52d44a0_0 (+ v0x52d43a0_0 96.0))
                 (= v0x52d46a0_0 (+ v0x52d43a0_0 12.0))
                 (= v0x52d4aa0_0 (+ v0x52d43a0_0 8.0))
                 (= v0x52d4ca0_0 (+ v0x52d43a0_0 24.0))
                 (= v0x52d4ea0_0 (+ v0x52d43a0_0 16.0))
                 (= v0x52d50a0_0 (+ v0x52d43a0_0 20.0))
                 (= v0x52d52a0_0 (+ v0x52d43a0_0 48.0))
                 (= v0x52d54a0_0 (+ v0x52d43a0_0 128.0))
                 (= v0x52d56a0_0 (+ v0x52d43a0_0 132.0))
                 (= v0x52d58a0_0 (+ v0x52d43a0_0 84.0))
                 (= v0x52d5aa0_0 (+ v0x52d43a0_0 108.0))
                 (= v0x52d5ca0_0 (+ v0x52d43a0_0 120.0))
                 (= v0x52d5ea0_0 (+ v0x52d43a0_0 104.0))
                 (= v0x52d60a0_0 (+ v0x52d43a0_0 116.0))
                 (= v0x52d62a0_0 (+ v0x52d43a0_0 124.0))
                 (= v0x52d64a0_0 (+ v0x52d43a0_0 112.0))
                 (= v0x52d66a0_0 v0x518c990_0)
                 (= v0x52d69a0_0 (+ v0x52d66a0_0 8.0))
                 (= v0x52d6ba0_0 (+ v0x52d66a0_0 12.0))
                 (= v0x52d6da0_0 (+ v0x52d66a0_0 16.0))
                 (= v0x52d6fa0_0 (+ v0x52d66a0_0 40.0))
                 (= v0x52d71a0_0 (+ v0x52d66a0_0 36.0))
                 (= v0x52d73a0_0 (+ v0x52d66a0_0 20.0))
                 (= v0x52d75a0_0 (+ v0x52d66a0_0 24.0))
                 (= v0x52d77a0_0 (+ v0x52d66a0_0 28.0))
                 (= v0x52d79a0_0 (+ v0x52d66a0_0 32.0))
                 (= v0x52d7ba0_0 (+ v0x52d66a0_0 44.0))
                 (= v0x52d7da0_0 (+ v0x52d66a0_0 48.0))
                 (= v0x52d7fa0_0 (+ v0x52d66a0_0 52.0))
                 (= v0x52cf980_0 (+ v0x52d43a0_0 100.0))
                 (= v0x52cfb80_0 (+ v0x52d43a0_0 32.0))
                 (= v0x52cfd80_0 (+ v0x52d43a0_0 36.0))
                 (= v0x52cff80_0 (+ v0x52d43a0_0 44.0))
                 (= v0x52d0180_0 (+ v0x52d43a0_0 56.0))
                 (= v0x52d0380_0 (+ v0x52d43a0_0 60.0))
                 (= v0x52d9990_0 (+ v0x52d43a0_0 68.0))
                 (= v0x52d9b90_0 (+ v0x52d43a0_0 72.0))
                 (= v0x52d9d90_0 (+ v0x52d66a0_0 84.0))
                 (= v0x52d9f90_0 (+ v0x52d66a0_0 56.0))
                 (= v0x52da190_0 (+ v0x52d66a0_0 64.0))
                 (= v0x52da390_0 (+ v0x52d66a0_0 60.0))
                 (= v0x52da590_0 (+ v0x52d66a0_0 68.0))
                 (= v0x52da790_0 (+ v0x52d66a0_0 72.0))
                 (= v0x52da990_0 (+ v0x52d66a0_0 76.0))
                 (= v0x52dab90_0 (+ v0x52d66a0_0 80.0))
                 (= v0x52dad90_0 (+ v0x52d66a0_0 92.0))
                 (= v0x52daf90_0 (+ v0x52d66a0_0 88.0))
                 (= v0x52db290_0 (+ v0x52c25f0_0 1040.0))
                 (= v0x52db490_0 (+ v0x52c25f0_0 336.0))
                 (or a!10 (and (not v0x52db790_0) (= v0x52c24f0_0 1.0)))
                 (= v0x52db890_0 (+ v0x52c23f0_0 1256.0))
                 (= v0x52dba90_0 (+ v0x52c23f0_0 1232.0))
                 (= v0x52dbc90_0 (+ v0x52c23f0_0 1236.0))
                 (= v0x52dbe90_0 (+ v0x52c23f0_0 1192.0)))))
  (=> a!11
      (and (< v0x52c23f0_0 R0x54a34e0)
           (< v0x52c24f0_0 R0x5529c70)
           (< v0x52c25f0_0 R0x552f370)
           (< v0x52c0f30_0 R0x552f560)
           (< v0x52c1030_0 R0x552b880)
           (< v0x52c2ac0_0 R0x552bb80)
           (< v0x52c2bc0_0 R0x552f4e0)
           (< v0x52c2fc0_0 R0x552f490)
           (< v0x52c30c0_0 R0x552a920)
           (< v0x52c32c0_0 R0x552ef40)
           (< v0x52c33c0_0 R0x552ac30)
           (< v0x52c34c0_0 R0x552af10)
           (< v0x52c36c0_0 R0x552a5c0)
           (< v0x52c37c0_0 R0x552b2b0)
           (< v0x52c39c0_0 R0x552b540)
           (< v0x52c3ec0_0 R0x552c980)
           (< v0x52c40c0_0 R0x552a890)
           (< v0x51ba750_0 R0x552b650)
           (< v0x52c2910_0 R0x5529530)
           (< v0x52c4790_0 R0x552c2f0)
           (< v0x52c4990_0 R0x552ca60)
           (< v0x52c4b90_0 R0x552acb0)
           (< v0x52c4d90_0 R0x552eac0)
           (< v0x52c4f90_0 R0x552a130)
           (< v0x52c5190_0 R0x552b3f0)
           (< v0x52c5390_0 R0x552ee60)
           (< v0x52c5590_0 R0x552eca0)
           (< v0x52c5790_0 R0x552aa60)
           (< v0x52c5990_0 R0x552aec0)
           (< v0x52c5b90_0 R0x552da20)
           (< v0x52c5d90_0 R0x5528e10)
           (< v0x52c5f90_0 R0x552a2e0)
           (< v0x52c6190_0 R0x552d7f0)
           (< v0x52c6490_0 R0x552d5f0)
           (< v0x52c6690_0 R0x552d950)
           (< v0x52c6890_0 R0x552a660)
           (< v0x52c6a90_0 R0x552e790)
           (< v0x52c6c90_0 R0x552f8f0)
           (< v0x52c6e90_0 R0x5528ef0)
           (< v0x52c7090_0 R0x5529110)
           (< v0x52c7290_0 R0x5529330)
           (< v0x52c7490_0 R0x5531930)
           (< v0x52c7690_0 R0x552ffc0)
           (< v0x52c43c0_0 R0x5531e90)
           (< v0x52c45c0_0 R0x5531310)
           (< v0x52c8080_0 R0x552d180)
           (< v0x52c8280_0 R0x552e040)
           (< v0x52c8480_0 R0x55327e0)
           (< v0x52c8680_0 R0x5531430)
           (< v0x52c8880_0 R0x5531200)
           (< v0x52c8a80_0 R0x552db20)
           (< v0x52c8c80_0 R0x5530460)
           (< v0x52c8e80_0 R0x552df00)
           (< v0x52c9080_0 R0x552d020)
           (< v0x52c9280_0 R0x552b160)
           (< v0x52c9480_0 R0x552e480)
           (< v0x52c9680_0 R0x552c7b0)
           (< v0x52c9880_0 R0x5530c00)
           (< v0x52c9a80_0 R0x5530f40)
           (< v0x52c9c80_0 R0x552dd00)
           (< v0x52c9e80_0 R0x5531dc0)
           (< v0x52ca080_0 R0x552d4a0)
           (< v0x52ca280_0 R0x55318d0)
           (< v0x52ca480_0 R0x552ff20)
           (< v0x52ca680_0 R0x552dfd0)
           (< v0x52ca880_0 R0x552e520)
           (< v0x52caa80_0 R0x552f680)
           (< v0x52cac80_0 R0x5532920)
           (< v0x52cae80_0 R0x55359b0)
           (< v0x52cb080_0 R0x5535900)
           (< v0x52cb280_0 R0x5535fc0)
           (< v0x52cb480_0 R0x55362d0)
           (< v0x52cb680_0 R0x55366c0)
           (< v0x52cb880_0 R0x5535580)
           (< v0x52cba80_0 R0x5534b50)
           (< v0x52cbc80_0 R0x5537770)
           (< v0x52cbe80_0 R0x5532fe0)
           (< v0x52cc080_0 R0x5537cc0)
           (< v0x52cc280_0 R0x5536390)
           (< v0x52cc480_0 R0x5533da0)
           (< v0x52cc680_0 R0x5532be0)
           (< v0x52cc880_0 R0x5537500)
           (< v0x52cca80_0 R0x5533ca0)
           (< v0x52ccc80_0 R0x5535d10)
           (< v0x52cce80_0 R0x5531a90)
           (< v0x52cd080_0 R0x5536c30)
           (< v0x52cd280_0 R0x5536510)
           (< v0x52cd480_0 R0x5535040)
           (< v0x52cd680_0 R0x5539f50)
           (< v0x52cd880_0 R0x55371a0)
           (< v0x52cda80_0 R0x553a300)
           (< v0x52cdf80_0 R0x553a910)
           (< v0x52ce080_0 R0x5539920)
           (< v0x52ce180_0 R0x5539ea0)
           (< v0x52ce280_0 R0x5535bd0)
           (< v0x52ce380_0 R0x5539060)
           (< v0x52ce480_0 R0x553a210)
           (< v0x52ce580_0 R0x553a070)
           (< v0x52ce680_0 R0x55306a0)
           (< v0x52ce780_0 R0x553b560)
           (< v0x52ce880_0 R0x553b850)
           (< v0x52ce980_0 R0x553bed0)
           (< v0x52cf880_0 R0x5539c20)
           (< v0x52c7790_0 R0x5532ea0)
           (< v0x52c7890_0 R0x5539720)
           (< v0x52c7a90_0 R0x553b4f0)
           (< v0x52c7c90_0 R0x55398a0)
           (< v0x52d05c0_0 R0x553d0b0)
           (< v0x52d07a0_0 R0x55348a0)
           (< v0x52d09a0_0 R0x553c3d0)
           (< v0x52d0ba0_0 R0x553d020)
           (< v0x52d0da0_0 R0x553dbc0)
           (< v0x52d0fa0_0 R0x5533660)
           (< v0x52d11a0_0 R0x5533a50)
           (< v0x52d12a0_0 R0x5539b00)
           (< v0x52d14a0_0 R0x5539560)
           (< v0x52d16a0_0 R0x553e910)
           (< v0x52d18a0_0 R0x553eba0)
           (< v0x52d19a0_0 R0x553efe0)
           (< v0x52d1ba0_0 R0x55409b0)
           (< v0x52d1da0_0 R0x5540d60)
           (< v0x52d1fa0_0 R0x5540e90)
           (< v0x52d21a0_0 R0x5541140)
           (< v0x52d23a0_0 R0x5541490)
           (< v0x52d25a0_0 R0x55415c0)
           (< v0x52d26a0_0 R0x5541870)
           (< v0x52d28a0_0 R0x5541ba0)
           (< v0x52d2aa0_0 R0x5534f80)
           (< v0x52d2ca0_0 R0x5538c00)
           (< v0x52d2ea0_0 R0x55405a0)
           (< v0x52d30a0_0 R0x5540830)
           (< v0x52d32a0_0 R0x5536f40)
           (< v0x52d34a0_0 R0x5540150)
           (< v0x52d36a0_0 R0x55403c0)
           (< v0x52d38a0_0 R0x5542d20)
           (< v0x52d3aa0_0 R0x5542fb0)
           (< v0x52d3ca0_0 R0x5543240)
           (< v0x52d3ea0_0 R0x5543530)
           (< v0x52d40a0_0 R0x55438e0)
           (< v0x52d43a0_0 R0x5543b30)
           (< v0x52d44a0_0 R0x5543e00)
           (< v0x52d46a0_0 R0x55440f0)
           (< v0x52d4aa0_0 R0x5545fe0)
           (< v0x52d4ca0_0 R0x55436f0)
           (< v0x52d4ea0_0 R0x55457d0)
           (< v0x52d50a0_0 R0x5545b40)
           (< v0x52d52a0_0 R0x55460a0)
           (< v0x52d54a0_0 R0x55461d0)
           (< v0x52d56a0_0 R0x5546580)
           (< v0x52d58a0_0 R0x5546b90)
           (< v0x52d5aa0_0 R0x5546cc0)
           (< v0x52d5ca0_0 R0x55478c0)
           (< v0x52d5ea0_0 R0x55479f0)
           (< v0x52d60a0_0 R0x5547c40)
           (< v0x52d62a0_0 R0x55480f0)
           (< v0x52d64a0_0 R0x5546df0)
           (< v0x52d66a0_0 R0x5546f20)
           (< v0x52d69a0_0 R0x5545890)
           (< v0x52d6ba0_0 R0x55474d0)
           (< v0x52d6da0_0 R0x5546a90)
           (< v0x52d6fa0_0 R0x5548220)
           (< v0x52d71a0_0 R0x5548350)
           (< v0x52d73a0_0 R0x55444a0)
           (< v0x52d75a0_0 R0x5544890)
           (< v0x52d77a0_0 R0x5549710)
           (< v0x52d79a0_0 R0x5549080)
           (< v0x52d7ba0_0 R0x5549370)
           (< v0x52d7da0_0 R0x5549620)
           (< v0x52d7fa0_0 R0x5545430)
           (< v0x52cf980_0 R0x5548540)
           (< v0x52cfb80_0 R0x5548770)
           (< v0x52cfd80_0 R0x5548aa0)
           (< v0x52cff80_0 R0x5544bc0)
           (< v0x52d0180_0 R0x5544f90)
           (< v0x52d0380_0 R0x55451c0)
           (< v0x52d9990_0 R0x5549940)
           (< v0x52d9b90_0 R0x5547440)
           (< v0x52d9d90_0 R0x5549750)
           (< v0x52d9f90_0 R0x553e340)
           (< v0x52da190_0 R0x5535490)
           (< v0x52da390_0 R0x553e3e0)
           (< v0x52da590_0 R0x553dec0)
           (< v0x52da790_0 R0x553ea30)
           (< v0x52da990_0 R0x553d170)
           (< v0x52dab90_0 R0x5544020)
           (< v0x52dad90_0 R0x5533e80)
           (< v0x52daf90_0 R0x553a840)
           (< v0x52db290_0 R0x5541780)
           (< v0x52db490_0 R0x5540ab0)
           (< v0x52db890_0 R0x5540c10)
           (< v0x52dba90_0 R0x553d850)
           (< v0x52dbc90_0 R0x5538c60)
           (< v0x52dbe90_0 R0x5537ee0))))))